% File represents an instance of a Composite Structure problem to be solved by a CP framework
% Created on 2025-03-25 14:05:13.626
T = 35;
n = 9;
m = 12;
edges = [(1, 2),
(4, 5),
(8, 7),
(3, 2),
(6, 5),
(9, 8),
(4, 1),
(4, 7),
(2, 5),
(5, 8),
(6, 3),
(9, 6)];
counts = [|11, 9, 6, 4,
|11, 7, 6, 3,
|11, 7, 7, 3,
|11, 9, 6, 5,
|11, 7, 5, 3,
|11, 7, 7, 5,
|10, 5, 4, 2,
|10, 7, 5, 3,
|11, 7, 12, 5|];
